Problem:    
Rows:       113
Columns:    45 (34 integer, 34 binary)
Non-zeros:  356
Status:     INTEGER OPTIMAL
Objective:  value = 21.922681 (MINimum)

   No.   Row name        Activity     Lower bound   Upper bound
------ ------------    ------------- ------------- -------------
     1 r.5                   1021.92             0               
     2 r.6                  -978.077      -994.399               
     3 r.7                   21.9227             0               
     4 r.8                   21.9227       -989.57               
     5 r.9                   1021.92             0               
     6 r.10                 -983.678      -996.226               
     7 r.11                  21.9227             0               
     8 r.12                  21.9227      -993.732               
     9 r.13                  21.9227             0               
    10 r.14                  21.9227      -989.148               
    11 r.15                  1021.92             0               
    12 r.16                 -978.077      -981.528               
    13 r.17                  1021.92             0               
    14 r.18                 -987.452      -994.095               
    15 r.19                  21.9227             0               
    16 r.20                  21.9227      -988.712               
    17 r.21                  1021.92             0               
    18 r.22                 -998.927      -998.927               
    19 r.23                  21.9227             0               
    20 r.24                 -997.812      -997.812               
    21 r.25                        1             1             = 
    22 r.26                        1             1             = 
    23 r.27                        1             1             = 
    24 r.28                        1             1             = 
    25 r.29                        1             1             = 
    26 r.30                        2             2               
    27 r.31                       -2         -1001               
    28 r.32                  -5.6009      -996.226               
    29 r.33                     1000             2               
    30 r.34                    -1000         -1001               
    31 r.35                     2000      -993.732               
    32 r.36                     1001             2               
    33 r.37                    -1001         -1001               
    34 r.38                     2000      -989.148               
    35 r.39                     1001             2               
    36 r.40                    -1001         -1001               
    37 r.41                     2000      -981.528               
    38 r.42                        2             2               
    39 r.43                       -2         -1001               
    40 r.44                  -9.3749      -994.095               
    41 r.45                     1000             2               
    42 r.46                    -1000         -1001               
    43 r.47                     2000      -988.712               
    44 r.48                 -981.528      -994.399               
    45 r.49                  18.4723       -989.57               
    46 r.50                  21.9544      -994.399               
    47 r.51                  1021.95       -989.57               
    48 r.52                        2             2               
    49 r.53                       -2         -1001               
    50 r.54                   5.6009        5.6009               
    51 r.55                     1000             2               
    52 r.56                    -1000         -1001               
    53 r.57                     2000         10.43               
    54 r.58                     1001             2               
    55 r.59                    -1001         -1001               
    56 r.60                   2005.6      -989.148               
    57 r.61                     1001             2               
    58 r.62                    -1001         -1001               
    59 r.63                     2000      -981.528               
    60 r.64                        2             2               
    61 r.65                       -2         -1001               
    62 r.66                   -3.774      -994.095               
    63 r.67                     1000             2               
    64 r.68                    -1000         -1001               
    65 r.69                     2000      -988.712               
    66 r.70                 -987.129      -996.226               
    67 r.71                  18.4723      -993.732               
    68 r.72                  16.3535      -996.226               
    69 r.73                  1021.95      -993.732               
    70 r.74                     1001             2               
    71 r.75                    -1001         -1001               
    72 r.76                     2000        5.6009               
    73 r.77                     1001             2               
    74 r.78                    -1001         -1001               
    75 r.79                     2000         10.43               
    76 r.80                     1001             2               
    77 r.81                    -1001         -1001               
    78 r.82                   1994.4         3.774               
    79 r.83                     1001             2               
    80 r.84                    -1001         -1001               
    81 r.85                     2000        6.2676               
    82 r.86                     1001             2               
    83 r.87                    -1001         -1001               
    84 r.88                  1990.63      -994.095               
    85 r.89                     1001             2               
    86 r.90                    -1001         -1001               
    87 r.91                     2000      -988.712               
    88 r.92                  18.4723      -989.148               
    89 r.93                 -981.528      -981.528               
    90 r.94                  1021.95      -989.148               
    91 r.95                  21.9544      -981.528               
    92 r.96                        2             2               
    93 r.97                       -2         -1001               
    94 r.98                   9.3749        5.6009               
    95 r.99                     1000             2               
    96 r.100                   -1000         -1001               
    97 r.101                    2000         10.43               
    98 r.102                       2             2               
    99 r.103                      -2         -1001               
   100 r.104                   3.774         3.774               
   101 r.105                    1000             2               
   102 r.106                   -1000         -1001               
   103 r.107                    2000        6.2676               
   104 r.108                    1001             2               
   105 r.109                   -1001         -1001               
   106 r.110                 2009.37       10.8522               
   107 r.111                    1001             2               
   108 r.112                   -1001         -1001               
   109 r.113                    2000       18.4723               
   110 r.114                -990.903      -994.095               
   111 r.115                 18.4723      -988.712               
   112 r.116                 12.5795      -994.095               
   113 r.117                 1021.95      -988.712               

   No. Column name       Activity     Lower bound   Upper bound
------ ------------    ------------- ------------- -------------
     1 tt                    21.9227             0               
     2 s_1_1        *              1             0             1 
     3 t_1_1                       0             0               
     4 s_2_1        *              0             0             1 
     5 t_2_1                       0             0               
     6 s_1_2        *              1             0             1 
     7 t_1_2                  5.6009             0               
     8 s_2_2        *              0             0             1 
     9 t_2_2                       0             0               
    10 s_1_3        *              0             0             1 
    11 t_1_3                       0             0               
    12 s_2_3        *              1             0             1 
    13 t_2_3                       0             0               
    14 s_1_4        *              1             0             1 
    15 t_1_4                  9.3749             0               
    16 s_2_4        *              0             0             1 
    17 t_2_4                       0             0               
    18 s_1_5        *              1             0             1 
    19 t_1_5                 18.4723             0               
    20 s_2_5        *              0             0             1 
    21 t_2_5                 1021.95             0               
    22 r_1_1_2      *              0             0             1 
    23 u_1_1_2      *              0             0             1 
    24 r_2_1_2      *              1             0             1 
    25 u_2_1_2      *              0             0             1 
    26 r_1_1_3      *              1             0             1 
    27 u_1_1_3      *              0             0             1 
    28 r_2_1_3      *              1             0             1 
    29 u_2_1_3      *              0             0             1 
    30 r_1_1_4      *              0             0             1 
    31 u_1_1_4      *              0             0             1 
    32 r_2_1_4      *              1             0             1 
    33 u_2_1_4      *              0             0             1 
    34 r_1_2_3      *              1             0             1 
    35 u_1_2_3      *              0             0             1 
    36 r_2_2_3      *              1             0             1 
    37 u_2_2_3      *              0             0             1 
    38 r_1_2_4      *              0             0             1 
    39 u_1_2_4      *              0             0             1 
    40 r_2_2_4      *              1             0             1 
    41 u_2_2_4      *              0             0             1 
    42 r_1_3_4      *              1             0             1 
    43 u_1_3_4      *              0             0             1 
    44 r_2_3_4      *              1             0             1 
    45 u_2_3_4      *              0             0             1 

Integer feasibility conditions:

KKT.PE: max.abs.err = 0.00e+00 on row 0
        max.rel.err = 0.00e+00 on row 0
        High quality

KKT.PB: max.abs.err = 0.00e+00 on row 0
        max.rel.err = 0.00e+00 on row 0
        High quality

End of output
